c dimacs generated by FastEx
c f601 25
c f610 24
c f611 23
c g61 16
c s612 17
c s613 18
c s614 20
c s615 26
c s623 19
c s624 21
c s625 27
c s634 22
c s635 28
c s645 29
c x61 1
c x610 10
c x611 11
c x612 12
c x613 13
c x614 14
c x615 15
c x62 2
c x63 3
c x64 4
c x65 5
c x66 6
c x67 7
c x68 8
c x69 9
p cnf 29 296
-17 -1 0
-17 -2 0
-17 -3 0
-17 4 -25 0
-17 -4 25 0
-17 5 -25 0
-17 -5 25 0
-17 6 -25 0
-17 -6 25 0
-17 7 -25 0
-17 -7 25 0
-17 8 -24 0
-17 -8 24 0
-17 9 -24 0
-17 -9 24 0
-17 10 -24 0
-17 -10 24 0
-17 11 -24 0
-17 -11 24 0
-17 12 -23 0
-17 -12 23 0
-17 13 -23 0
-17 -13 23 0
-17 14 -23 0
-17 -14 23 0
-17 15 -23 0
-17 -15 23 0
-18 -1 0
-18 2 -25 0
-18 -2 25 0
-18 3 -25 0
-18 -3 25 0
-18 -4 0
-18 -5 0
-18 6 -25 0
-18 -6 25 0
-18 7 -25 0
-18 -7 25 0
-18 8 -24 0
-18 -8 24 0
-18 9 -24 0
-18 -9 24 0
-18 10 -23 0
-18 -10 23 0
-18 11 -23 0
-18 -11 23 0
-18 12 -24 0
-18 -12 24 0
-18 13 -24 0
-18 -13 24 0
-18 14 -23 0
-18 -14 23 0
-18 15 -23 0
-18 -15 23 0
-19 -1 0
-19 2 -25 0
-19 -2 25 0
-19 3 -25 0
-19 -3 25 0
-19 4 -24 0
-19 -4 24 0
-19 5 -24 0
-19 -5 24 0
-19 6 -23 0
-19 -6 23 0
-19 7 -23 0
-19 -7 23 0
-19 -8 0
-19 -9 0
-19 10 -25 0
-19 -10 25 0
-19 11 -25 0
-19 -11 25 0
-19 12 -24 0
-19 -12 24 0
-19 13 -24 0
-19 -13 24 0
-19 14 -23 0
-19 -14 23 0
-19 15 -23 0
-19 -15 23 0
-20 1 -25 0
-20 -1 25 0
-20 -2 0
-20 3 -25 0
-20 -3 25 0
-20 -4 0
-20 5 -25 0
-20 -5 25 0
-20 -6 0
-20 7 -25 0
-20 -7 25 0
-20 8 -24 0
-20 -8 24 0
-20 9 -23 0
-20 -9 23 0
-20 10 -24 0
-20 -10 24 0
-20 11 -23 0
-20 -11 23 0
-20 12 -24 0
-20 -12 24 0
-20 13 -23 0
-20 -13 23 0
-20 14 -24 0
-20 -14 24 0
-20 15 -23 0
-20 -15 23 0
-21 1 -25 0
-21 -1 25 0
-21 -2 0
-21 3 -25 0
-21 -3 25 0
-21 4 -24 0
-21 -4 24 0
-21 5 -23 0
-21 -5 23 0
-21 6 -24 0
-21 -6 24 0
-21 7 -23 0
-21 -7 23 0
-21 -8 0
-21 9 -25 0
-21 -9 25 0
-21 -10 0
-21 11 -25 0
-21 -11 25 0
-21 12 -24 0
-21 -12 24 0
-21 13 -23 0
-21 -13 23 0
-21 14 -24 0
-21 -14 24 0
-21 15 -23 0
-21 -15 23 0
-22 1 -25 0
-22 -1 25 0
-22 2 -24 0
-22 -2 24 0
-22 3 -23 0
-22 -3 23 0
-22 -4 0
-22 5 -25 0
-22 -5 25 0
-22 6 -24 0
-22 -6 24 0
-22 7 -23 0
-22 -7 23 0
-22 -8 0
-22 9 -25 0
-22 -9 25 0
-22 10 -24 0
-22 -10 24 0
-22 11 -23 0
-22 -11 23 0
-22 -12 0
-22 13 -25 0
-22 -13 25 0
-22 14 -24 0
-22 -14 24 0
-22 15 -23 0
-22 -15 23 0
-26 1 -25 0
-26 -1 25 0
-26 2 -25 0
-26 -2 25 0
-26 3 -25 0
-26 -3 25 0
-26 4 -25 0
-26 -4 25 0
-26 5 -25 0
-26 -5 25 0
-26 6 -25 0
-26 -6 25 0
-26 7 -25 0
-26 -7 25 0
-26 8 -24 0
-26 -8 24 0
-26 9 -23 0
-26 -9 23 0
-26 10 -23 0
-26 -10 23 0
-26 11 -23 0
-26 -11 23 0
-26 12 -23 0
-26 -12 23 0
-26 13 -23 0
-26 -13 23 0
-26 14 -23 0
-26 -14 23 0
-26 15 -23 0
-26 -15 23 0
-27 1 -25 0
-27 -1 25 0
-27 2 -25 0
-27 -2 25 0
-27 3 -25 0
-27 -3 25 0
-27 4 -23 0
-27 -4 23 0
-27 5 -23 0
-27 -5 23 0
-27 6 -23 0
-27 -6 23 0
-27 7 -23 0
-27 -7 23 0
-27 -8 0
-27 9 -25 0
-27 -9 25 0
-27 10 -25 0
-27 -10 25 0
-27 11 -25 0
-27 -11 25 0
-27 12 -23 0
-27 -12 23 0
-27 13 -23 0
-27 -13 23 0
-27 14 -23 0
-27 -14 23 0
-27 15 -23 0
-27 -15 23 0
-28 1 -25 0
-28 -1 25 0
-28 2 -23 0
-28 -2 23 0
-28 3 -23 0
-28 -3 23 0
-28 4 -25 0
-28 -4 25 0
-28 5 -25 0
-28 -5 25 0
-28 6 -23 0
-28 -6 23 0
-28 7 -23 0
-28 -7 23 0
-28 -8 0
-28 9 -25 0
-28 -9 25 0
-28 10 -23 0
-28 -10 23 0
-28 11 -23 0
-28 -11 23 0
-28 12 -25 0
-28 -12 25 0
-28 13 -25 0
-28 -13 25 0
-28 14 -23 0
-28 -14 23 0
-28 15 -23 0
-28 -15 23 0
-29 1 -23 0
-29 -1 23 0
-29 2 -25 0
-29 -2 25 0
-29 3 -23 0
-29 -3 23 0
-29 4 -25 0
-29 -4 25 0
-29 5 -23 0
-29 -5 23 0
-29 6 -25 0
-29 -6 25 0
-29 7 -23 0
-29 -7 23 0
-29 -8 0
-29 9 -23 0
-29 -9 23 0
-29 10 -25 0
-29 -10 25 0
-29 11 -23 0
-29 -11 23 0
-29 12 -25 0
-29 -12 25 0
-29 13 -23 0
-29 -13 23 0
-29 14 -25 0
-29 -14 25 0
-29 15 -23 0
-29 -15 23 0
-16 1 0
-16 2 0
-16 3 0
-16 4 0
-16 5 0
-16 6 0
-16 7 0
-16 8 0
-16 9 0
-16 10 0
-16 11 0
-16 12 0
-16 13 0
-16 14 0
-16 15 0
16 0
17 18 19 20 21 22 26 27 28 29 0
